rect_size = array1d(1..1,
    [|3,3|3,4|3,5|3,6|3,7|3,8|3,9|3,10|3,11|3,15|4,3|4,4|4,5|4,6|4,8|4,9|4,12|4,15|4,16|5,3|5,4|5,5|5,6|5,8|5,10|5,11|5,13|5,18|15,39|]);

rect_offset = array1d(1..1, [|0,0 |0,0 |0,0 |0,0 |0,0 |0,0 |0,0 |0,0 |0,0 |0,0 |0,0
    |0,0 |0,0 |0,0 |0,0 |0,0 |0,0 |0,0 |0,0 |0,0 |0,0 |0,0 |0,0 |0,0
    |0,0 |0,0 |0,0 |0,0 |0,0 |]);

shape = array1d(1..29, [{1}, {2}, {3}, {4}, {5}, {6}, {7}, {8}, {9}, {10},
    {11}, {12}, {13}, {14}, {15}, {16}, {17}, {18}, {19}, {20}, {21},
    {22}, {23}, {24}, {25}, {26}, {27}, {28}, {29}]);

valid_shapes = array1d(1..29, [{1,2}, {3,4}, {5,6}, {7,8}, {9,10}, {11,12}, {13,14},
    {15,16}, {17,18}, {19,20}, {21,22}, {23,24}, {25,26}, {27,28},
    {29,30}, {31,32}, {33,34}, {35,36}, {37,38}, {39,40}, {41,42},
    {43,44}, {45,46}, {47,48}, {49,50}, {51,52}, {53,54}, {55,56},
    {57,58}]);

